cpu-bind=MASK - n2lcn0140, task  0  0 [3351515]: mask |--------|--------||--------|--------||--------|--------||--------|--------||||------BB|BB------||--------|--------||--------|--------||--------|--------|  set
started at Fri Mar 17 12:18:50 CET 2023
Timecheck 10013486.620833367
Set parameter TokenServer to value "license3.uni-paderborn.de"
Warning: Gurobi version mismatch between Python 10.0.1 and C library 10.0.0
Timecheck 10013486.640245149
Timecheck 10013486.640462857
Timecheck 10013486.640494129
Timecheck 10013486.640515167


####################################################################################################
Solve scenario sce_6_26_2 with free vessel operation using the arc flow model
Vessels cannot omit ports, Demands can be rejected
####################################################################################################
Data preprocessing, load /upb/departments/pc2/groups/hpc-prf-winf4/dwetzel/SILSRP/inst_final/sce_6_26_2
and create additional sets and parameters
	|- Read vessel information, number of vessels:	14
	|- Read node information, number of nodes:		794
	|- Read arc information
		|- Number of sailing arcs:			7833
		|- Number of transshipment arcs:	1151
	|- Read container information
		|- Number of demands:		4536
		|- Number of empties (+/-):	378/387
	|- Create additional sets and parameters

Data preprocessing took 	00:00:07.694
####################################################################################################
Create linear model
Set parameter Threads to value 4
	|- Create variables, took	00:00:18.569
	|- Create objective, took	00:00:08.878
	|- Create constraints, took	00:00:35.784
	|- Load heuristic start

Creating model took	00:01:03.257
####################################################################################################
Fix start solution

Set parameter TimeLimit to value 5.1617674247192219e+04
Gurobi Optimizer version 10.0.0 build v10.0.0rc2 (linux64)

CPU model: AMD EPYC 7763 64-Core Processor, instruction set [SSE2|AVX|AVX2]
Thread count: 128 physical cores, 128 logical processors, using up to 4 threads

Optimize a model with 478600 rows, 4064318 columns and 12738683 nonzeros
Model fingerprint: 0x6d53035a
Variable types: 3949341 continuous, 114977 integer (114977 binary)
Coefficient statistics:
  Matrix range     [1e+00, 1e+06]
  Objective range  [1e+00, 1e+00]
  Bounds range     [1e+00, 2e+03]
  RHS range        [1e+00, 2e+08]
Presolve removed 345743 rows and 3797305 columns (presolve time = 5s) ...
Presolve removed 403092 rows and 3873404 columns (presolve time = 10s) ...
Presolve removed 405247 rows and 3877844 columns
Presolve time: 14.66s
Presolved: 73353 rows, 186474 columns, 521840 nonzeros
Variable types: 182671 continuous, 3803 integer (3796 binary)
Deterministic concurrent LP optimizer: primal simplex, dual simplex, and barrier
Showing barrier log only...

Root barrier log...

Ordering time: 0.33s

Barrier statistics:
 AA' NZ     : 4.276e+05
 Factor NZ  : 2.705e+06 (roughly 130 MB of memory)
 Factor Ops : 2.563e+08 (less than 1 second per iteration)
 Threads    : 1

                  Objective                Residual
Iter       Primal          Dual         Primal    Dual     Compl     Time
   0   4.34165346e+13 -9.00652056e+12  1.39e+08 1.11e+04  5.52e+10    17s
   1   8.95993593e+12 -4.19116439e+12  2.72e+07 1.21e+04  1.10e+10    17s
   2   1.21249790e+12 -1.14776961e+12  3.52e+06 1.12e+03  1.48e+09    17s

Barrier performed 2 iterations in 17.44 seconds (11.15 work units)
Barrier solve interrupted - model solved by another algorithm

Concurrent spin time: 0.27s (can be avoided by choosing Method=3)

Solved with dual simplex

Root simplex log...

Iteration    Objective       Primal Inf.    Dual Inf.      Time
   23250    4.6912206e+07   0.000000e+00   0.000000e+00     18s
Extra simplex iterations after uncrush: 2

Root relaxation: objective 4.691221e+07, 23250 iterations, 1.64 seconds (1.40 work units)

    Nodes    |    Current Node    |     Objective Bounds      |     Work
 Expl Unexpl |  Obj  Depth IntInf | Incumbent    BestBd   Gap | It/Node Time

*    0     0               0    4.691221e+07 4.6912e+07  0.00%     -   17s

Explored 1 nodes (23250 simplex iterations) in 17.95 seconds (11.20 work units)
Thread count was 4 (of 128 available processors)

Solution count 1: 4.69122e+07 

Optimal solution found (tolerance 1.00e-04)
Best objective 4.691220600000e+07, best bound 4.691220600000e+07, gap 0.0000%

Fixing start solution took	00:01:22.490
####################################################################################################
####################################################################################################
Solve optimization model

Set parameter TimeLimit to value 51599.5365445558
Gurobi Optimizer version 10.0.0 build v10.0.0rc2 (linux64)

CPU model: AMD EPYC 7763 64-Core Processor, instruction set [SSE2|AVX|AVX2]
Thread count: 128 physical cores, 128 logical processors, using up to 4 threads

Optimize a model with 477807 rows, 4064318 columns and 12737890 nonzeros
Model fingerprint: 0x9fc8f6c0
Variable types: 3949341 continuous, 114977 integer (114977 binary)
Coefficient statistics:
  Matrix range     [1e+00, 1e+06]
  Objective range  [1e+00, 1e+00]
  Bounds range     [1e+00, 2e+03]
  RHS range        [1e+00, 2e+08]

Loaded MIP start from previous solve with objective 4.69122e+07

Presolve removed 18895 rows and 50000 columns (presolve time = 5s) ...
Presolve removed 21405 rows and 77656 columns (presolve time = 10s) ...
Presolve removed 23176 rows and 80895 columns (presolve time = 15s) ...
Presolve removed 23428 rows and 81455 columns (presolve time = 21s) ...
Presolve removed 23429 rows and 81468 columns (presolve time = 25s) ...
Presolve removed 23429 rows and 81468 columns (presolve time = 30s) ...
Presolve removed 23429 rows and 81468 columns (presolve time = 35s) ...
Presolve removed 24023 rows and 88754 columns (presolve time = 40s) ...
Presolve removed 24023 rows and 88754 columns (presolve time = 45s) ...
Presolve removed 25135 rows and 88754 columns (presolve time = 50s) ...
Presolve removed 25135 rows and 88754 columns
Presolve time: 50.31s
Presolved: 452672 rows, 3975564 columns, 11536368 nonzeros
Variable types: 3869631 continuous, 105933 integer (105933 binary)
Deterministic concurrent LP optimizer: primal simplex, dual simplex, and barrier
Showing barrier log only...

Root barrier log...

Elapsed ordering time = 5s
Elapsed ordering time = 10s
Elapsed ordering time = 15s
Elapsed ordering time = 20s
Elapsed ordering time = 25s
Elapsed ordering time = 30s
Elapsed ordering time = 35s
Elapsed ordering time = 40s
Elapsed ordering time = 45s
Elapsed ordering time = 50s
Elapsed ordering time = 55s
Elapsed ordering time = 60s
Elapsed ordering time = 65s
Elapsed ordering time = 70s
Elapsed ordering time = 75s
Elapsed ordering time = 80s
Elapsed ordering time = 85s
Elapsed ordering time = 90s
Elapsed ordering time = 95s
Elapsed ordering time = 100s
Elapsed ordering time = 105s
Elapsed ordering time = 110s
Elapsed ordering time = 115s
Elapsed ordering time = 120s
Elapsed ordering time = 125s
Elapsed ordering time = 130s
Elapsed ordering time = 135s
Elapsed ordering time = 140s
Elapsed ordering time = 145s
Elapsed ordering time = 150s
Elapsed ordering time = 155s
Elapsed ordering time = 160s
Elapsed ordering time = 165s
Elapsed ordering time = 170s
Elapsed ordering time = 175s
Elapsed ordering time = 180s
Elapsed ordering time = 185s
Elapsed ordering time = 190s
Elapsed ordering time = 195s
Elapsed ordering time = 200s
Elapsed ordering time = 205s
Elapsed ordering time = 210s
Elapsed ordering time = 215s
Elapsed ordering time = 220s
Elapsed ordering time = 225s
Elapsed ordering time = 230s
Elapsed ordering time = 235s
Elapsed ordering time = 240s
Elapsed ordering time = 245s
Elapsed ordering time = 250s
Elapsed ordering time = 255s
Elapsed ordering time = 260s
Elapsed ordering time = 265s
Elapsed ordering time = 270s
Elapsed ordering time = 275s
Elapsed ordering time = 280s
Elapsed ordering time = 285s
Elapsed ordering time = 290s
Elapsed ordering time = 295s
Elapsed ordering time = 300s
Elapsed ordering time = 305s
Elapsed ordering time = 310s
Elapsed ordering time = 315s
Elapsed ordering time = 320s
Elapsed ordering time = 325s
Elapsed ordering time = 330s
Elapsed ordering time = 335s
Elapsed ordering time = 340s
Elapsed ordering time = 345s
Elapsed ordering time = 350s
Elapsed ordering time = 355s
Elapsed ordering time = 360s
Ordering time: 363.95s

Barrier statistics:
 AA' NZ     : 1.097e+07
 Factor NZ  : 3.600e+08 (roughly 5.0 GB of memory)
 Factor Ops : 9.001e+11 (roughly 15 seconds per iteration)
 Threads    : 2

                  Objective                Residual
Iter       Primal          Dual         Primal    Dual     Compl     Time
   0   6.39151768e+15 -5.48420190e+14  1.90e+09 8.79e+03  1.06e+12   474s
   1   1.15854195e+15 -1.14666784e+14  3.42e+08 8.54e+03  1.97e+11   501s
   2   1.08101497e+14 -2.53173714e+13  3.18e+07 4.05e-09  1.84e+10   533s
   3   1.32298566e+13 -7.45520099e+12  3.88e+06 4.28e-09  2.27e+09   563s
   4   1.57589678e+12 -3.29947266e+12  4.61e+05 4.98e-09  2.75e+08   597s
   5   8.21287836e+10 -2.10217269e+12  2.39e+04 7.77e-09  1.48e+07   631s
   6   1.19221250e+10 -1.65011119e+12  3.38e+03 4.66e-09  2.25e+06   669s
   7   1.73977073e+09 -1.21760833e+12  3.80e+02 5.38e-09  3.66e+05   706s
   8   1.10730991e+09 -8.44494048e+11  1.91e+02 3.74e-09  2.01e+05   738s
   9   5.31541864e+08 -5.84569341e+11  6.04e+01 1.86e-08  1.01e+05   775s
  10   3.35579402e+08 -3.76039634e+11  2.74e+01 6.26e-08  5.92e+04   808s
  11   2.04242870e+08 -2.07364339e+11  8.97e+00 8.01e-08  3.02e+04   848s
  12   1.52400470e+08 -8.05780746e+10  2.70e+00 9.31e-08  1.13e+04   886s
  13   1.11786958e+08 -1.57279101e+10  6.01e-01 9.27e-08  2.15e+03   928s
  14   9.50616181e+07 -5.99485458e+09  2.81e-01 2.54e-07  8.00e+02   969s
  15   8.75969639e+07 -3.79914669e+09  1.88e-01 2.00e-07  5.05e+02  1006s
  16   7.87608981e+07 -1.95503473e+09  8.82e-02 1.27e-07  2.60e+02  1042s
  17   7.37311750e+07 -1.40143883e+09  5.41e-02 1.25e-07  1.87e+02  1072s
  18   6.95512459e+07 -9.10299328e+08  3.35e-02 1.13e-07  1.24e+02  1105s
  19   6.59331159e+07 -5.98889865e+08  2.18e-02 9.66e-08  8.39e+01  1137s
  20   6.15777985e+07 -4.09568613e+08  1.24e-02 1.06e-07  5.94e+01  1168s
  21   5.91395105e+07 -2.42836240e+08  9.12e-03 1.01e-07  3.80e+01  1196s
  22   5.51775088e+07 -1.71681698e+08  5.65e-03 1.14e-07  2.86e+01  1224s
  23   5.28703548e+07 -1.20096658e+08  4.21e-03 1.34e-07  2.18e+01  1253s
  24   5.04894075e+07 -8.85914611e+07  3.07e-03 1.26e-07  1.75e+01  1277s
  25   4.81927231e+07 -5.70416995e+07  2.14e-03 1.02e-07  1.32e+01  1304s
  26   4.57906983e+07 -3.82672763e+07  1.38e-03 1.11e-07  1.06e+01  1330s
  27   4.43066142e+07 -1.32581250e+07  1.04e-03 1.04e-07  7.24e+00  1357s
  28   4.25444744e+07 -9.21440141e+05  7.47e-04 1.22e-07  5.47e+00  1385s
  29   4.11932285e+07  6.58246471e+06  5.61e-04 1.42e-07  4.35e+00  1410s
  30   3.98640341e+07  1.36823163e+07  4.04e-04 1.24e-07  3.29e+00  1437s
  31   3.85707029e+07  1.89085472e+07  2.70e-04 1.23e-07  2.47e+00  1464s
  32   3.77980275e+07  2.27799839e+07  2.07e-04 1.27e-07  1.89e+00  1492s
  33   3.71669234e+07  2.60213208e+07  1.61e-04 1.24e-07  1.40e+00  1517s
  34   3.65111513e+07  2.84315665e+07  1.17e-04 1.08e-07  1.02e+00  1542s
  35   3.59188629e+07  2.96321194e+07  8.13e-05 1.45e-07  7.90e-01  1568s
  36   3.55050138e+07  3.09381710e+07  5.86e-05 1.12e-07  5.74e-01  1594s
  37   3.51661048e+07  3.15595719e+07  4.13e-05 1.24e-07  4.53e-01  1619s
  38   3.49432430e+07  3.22536910e+07  3.07e-05 1.32e-07  3.38e-01  1644s
  39   3.46725211e+07  3.28142207e+07  1.87e-05 1.44e-07  2.34e-01  1668s
  40   3.45302320e+07  3.32808130e+07  1.28e-05 1.24e-07  1.57e-01  1692s
  41   3.43851021e+07  3.35648391e+07  7.27e-06 1.06e-07  1.03e-01  1720s
  42   3.43602199e+07  3.37639959e+07  6.37e-06 1.58e-06  7.50e-02  1748s
  43   3.43020066e+07  3.38979422e+07  4.28e-06 6.63e-07  5.08e-02  1775s
  44   3.42585775e+07  3.40117266e+07  2.79e-06 1.28e-07  3.11e-02  1799s
  45   3.42167272e+07  3.40847689e+07  1.39e-06 4.60e-07  1.66e-02  1825s
  46   3.41982687e+07  3.41122968e+07  7.92e-07 2.39e-07  1.08e-02  1854s
  47   3.41866420e+07  3.41305940e+07  4.25e-07 5.04e-07  7.05e-03  1881s
  48   3.41809610e+07  3.41412356e+07  2.48e-07 5.10e-07  5.00e-03  1910s
  49   3.41758915e+07  3.41548047e+07  8.11e-08 9.13e-07  2.65e-03  1940s
  50   3.41737198e+07  3.41659770e+07  2.10e-08 4.83e-07  9.74e-04  1976s
  51   3.41727969e+07  3.41715568e+07  8.33e-09 3.22e-07  1.56e-04  2005s
  52   3.41726093e+07  3.41725540e+07  6.97e-08 8.75e-07  6.95e-06  2033s
  53   3.41725975e+07  3.41725919e+07  7.63e-07 3.95e-07  7.00e-07  2069s
  54   3.41725963e+07  3.41725946e+07  8.08e-06 4.67e-06  2.15e-07  2098s
  55   3.41725960e+07  3.41725946e+07  6.52e-06 2.50e-06  1.74e-07  2125s

Barrier solved model in 55 iterations and 2125.06 seconds (1706.46 work units)
Optimal objective 3.41725960e+07


Root crossover log...

  425692 DPushes remaining with DInf 0.0000000e+00              2126s
   97087 DPushes remaining with DInf 0.0000000e+00              2132s
   13805 DPushes remaining with DInf 0.0000000e+00              2136s
    4283 DPushes remaining with DInf 1.7945596e-05              2148s
    4212 DPushes remaining with DInf 0.0000000e+00              2152s

   16184 PPushes remaining with PInf 7.9940262e-03              2152s
   13227 PPushes remaining with PInf 5.8466015e-03              2155s
       0 PPushes remaining with PInf 0.0000000e+00              2158s

  Push phase complete: Pinf 0.0000000e+00, Dinf 3.9984656e+00   2158s


Root simplex log...

Iteration    Objective       Primal Inf.    Dual Inf.      Time
  437577    3.4172595e+07   0.000000e+00   3.998465e+00   2159s
  437581    3.4172595e+07   0.000000e+00   0.000000e+00   2159s
Waiting for other threads to finish...        2223s
Waiting for other threads to finish...        2287s
Waiting for other threads to finish...        2350s
Waiting for other threads to finish...        2414s
Waiting for other threads to finish...        2478s
Waiting for other threads to finish...        2541s
Waiting for other threads to finish...        2605s
Waiting for other threads to finish...        2669s
Waiting for other threads to finish...        2732s
Waiting for other threads to finish...        2795s
Waiting for other threads to finish...        2859s
Waiting for other threads to finish...        2922s
Concurrent spin time: 795.86s (can be avoided by choosing Method=3)

Solved with barrier
  437581    3.4172595e+07   0.000000e+00   0.000000e+00   2957s

Root relaxation: objective 3.417259e+07, 437581 iterations, 2904.18 seconds (1716.21 work units)
Total elapsed time = 2972.21s
Total elapsed time = 2984.81s
Total elapsed time = 2992.84s

    Nodes    |    Current Node    |     Objective Bounds      |     Work
 Expl Unexpl |  Obj  Depth IntInf | Incumbent    BestBd   Gap | It/Node Time

     0     0 3.4173e+07    0 8255 4.6912e+07 3.4173e+07  27.2%     - 3006s
     0     0          -    0      4.6912e+07 3.4173e+07  27.2%     - 51599s

Cutting planes:
  Gomory: 1
  Cover: 3
  Implied bound: 938
  MIR: 102
  Flow cover: 2674
  RLT: 12
  Relax-and-lift: 164

Explored 1 nodes (679157 simplex iterations) in 51599.71 seconds (40450.75 work units)
Thread count was 4 (of 128 available processors)

Solution count 1: 4.69122e+07 

Time limit reached
Best objective 4.691220600000e+07, best bound 3.417259462584e+07, gap 27.1563%

Solving took 	14:19:59.776
####################################################################################################
####################################################################################################
####################################################################################################
Reached timelimit, but could find a feasible solution
####################################################################################################
Description                          Value
----------------------------  ------------
Objective (min)               46,912,206.0
Cost sailing                  20,370,539.0
Cost port visits              23,880,982.0
Cost transshipment (demands)   4,217,774.0
Cost transshipment (empties)   1,047,595.0
Penalty delayed demands        4,725,476.0
Revenue Empties                7,651,960.0
Penalty rejected demands         321,800.0
Rejected demands (%)                  0.28
Omitted ports (%)                      0.0
Gap (%)                              27.16
####################################################################################################
Export solution
####################################################################################################
Overall time 	14:21:33.253

real	861m34.275s
user	965m45.075s
sys	0m45.141s
finished at Sat Mar 18 02:40:24 CET 2023
